% Auto-generated by scripts/generate_dzn.py
% problem_type   = regex
% instance       = regex_53
% source_json    = instances_json/2_high_blowup/regex_53.json
% blowup         = 23.7
% representation = NFA

mode = 1;

var_count = 18;
n_constraints = 2;
Q = 12;
S = 3;
q0 = [1, 1];
F = [{12}, {8}];
weights = [1, 6, 5, 10, 5, 1, 3, 7, 10, 3, 1, 6, 4, 3, 10, 8, 9, 6];
d_dfa = array3d(1..2, 1..12, 1..3, [
  % k = 1
    0, 0, 0,
    0, 0, 0,
    0, 0, 0,
    0, 0, 0,
    0, 0, 0,
    0, 0, 0,
    0, 0, 0,
    0, 0, 0,
    0, 0, 0,
    0, 0, 0,
    0, 0, 0,
    0, 0, 0,

  % k = 2
    0, 0, 0,
    0, 0, 0,
    0, 0, 0,
    0, 0, 0,
    0, 0, 0,
    0, 0, 0,
    0, 0, 0,
    0, 0, 0,
    0, 0, 0,
    0, 0, 0,
    0, 0, 0,
    0, 0, 0
]);
d_nfa = array3d(1..2, 1..12, 1..3, [
  % k = 1
    {1}, {1, 2}, {1},
    {}, {3}, {},
    {4}, {4}, {4},
    {5}, {5}, {5},
    {6}, {6}, {6},
    {7}, {7}, {7},
    {8}, {8}, {8},
    {9}, {9}, {9},
    {10}, {10}, {10},
    {11}, {11}, {11},
    {12}, {12}, {12},
    {}, {}, {},

  % k = 2
    {1}, {2}, {1},
    {2}, {3}, {2},
    {3}, {4}, {3},
    {4}, {5}, {4},
    {5}, {6}, {5},
    {6}, {7}, {6},
    {7}, {8}, {7},
    {8}, {}, {8},
    {}, {}, {},
    {}, {}, {},
    {}, {}, {},
    {}, {}, {}
]);
